scenarios/sols/small/emicp_milp/009.sol
objective value:                     2.90295906702144
x(0,3,0)                                            1 	(obj:0)
x(1,9,0)                                            1 	(obj:0)
x(2,4,0)                                            1 	(obj:0)
x(3,2,0)                                            1 	(obj:0)
x(4,1,0)                                            1 	(obj:0)
x(9,10,0)                                           1 	(obj:0)
x(10,0,0)                                           1 	(obj:0)
xc(0,10)                                            1 	(obj:0)
xc(3,0)                                             1 	(obj:0)
u(1,0)                               1.15357431915888 	(obj:0)
u(2,0)                              0.362239237806266 	(obj:0)
u(3,0)                             0.0311124735688857 	(obj:0)
u(4,0)                               0.91604681686688 	(obj:0)
u(5,0)                               2.90295906702144 	(obj:0)
u(9,0)                               2.00116463450731 	(obj:0)
u(10,0)                              2.90295906702144 	(obj:0)
u(11,0)                              0.49366856639474 	(obj:0)
u(13,0)                            0.0296880545026994 	(obj:0)
u(14,0)                               0.3754102777764 	(obj:0)
u(15,0)                             0.412655228633609 	(obj:0)
u(16,0)                            0.0485791923411991 	(obj:0)
u(17,0)                             0.169595157192461 	(obj:0)
u(18,0)                            0.0899412633343601 	(obj:0)
u(19,0)                             0.654894346793679 	(obj:0)
f(0,3,0)                                            1 	(obj:0)
f(1,9,0)                                            1 	(obj:0)
f(1,9,1)                                            1 	(obj:0)
f(1,9,2)                                            1 	(obj:0)
f(1,9,3)                                            1 	(obj:0)
f(1,9,4)                                            1 	(obj:0)
f(2,4,0)                                            1 	(obj:0)
f(2,4,2)                                            1 	(obj:0)
f(2,4,3)                                            1 	(obj:0)
f(3,2,0)                                            1 	(obj:0)
f(3,2,3)                                            1 	(obj:0)
f(4,1,0)                                            1 	(obj:0)
f(4,1,2)                                            1 	(obj:0)
f(4,1,3)                                            1 	(obj:0)
f(4,1,4)                                            1 	(obj:0)
z_r(0,)                              2.90295906702144 	(obj:0)
z                                    2.90295906702144 	(obj:1)
