scenarios/sols/small/emicp_milp/009.out
b'The following solver is parallelized by UG version 0.9.1 [GitHash: ]\n'
b'SCIP version 7.0.2 [precision: 8 byte] [memory: block] [mode: optimized] [LP solver: SoPlex 5.0.2] [GitHash: e9d280a398]\n'
b'Copyright (C) 2002-2020 Konrad-Zuse-Zentrum fuer Informationstechnik Berlin (ZIB)\n'
b'External codes: \n'
b'  Readline 7.0         GNU library for command line editing (gnu.org/s/readline)\n'
b'  SoPlex 5.0.2         Linear Programming Solver developed at Zuse Institute Berlin (soplex.zib.de) [GitHash: e24c304e]\n'
b'  CppAD 20180000.0     Algorithmic Differentiation of C++ algorithms developed by B. Bell (www.coin-or.org/CppAD)\n'
b'  ZLIB 1.2.11          General purpose compression library by J. Gailly and M. Adler (zlib.net)\n'
b'  GMP 6.1.2            GNU Multiple Precision Arithmetic Library developed by T. Granlund (gmplib.org)\n'
b'  ZIMPL 3.4.0          Zuse Institute Mathematical Programming Language developed by T. Koch (zimpl.zib.de)\n'
b'Default LC presolving (default).\n'
b'Original Problem   :\n'
b'  Problem name     : 009\n'
b'  Variables        : 4863 (800 binary, 0 integer, 0 implicit integer, 4063 continuous)\n'
b'  Constraints      : 13406\n'
b'  Objective sense  : minimize\n'
b'Presolved Problem  :\n'
b'  Variables        : 520 (88 binary, 0 integer, 0 implicit integer, 432 continuous)\n'
b'  Constraints      : 584\n'
b'Constraints        : Number\n'
b'  varbound         : 402 \n'
b'  setppc           : 14 \n'
b'  linear           : 167 \n'
b'  logicor          : 1 \n'
b'** Instance transfer method used: 0\n'
b'** ParaScipInstance copy does not increase the number of variables. **\n'
b'LC is working with racing ramp-up and with rebuilding tree after racing.\n'
b'                               Nodes    Active                                            \n'
b'     Time          Nodes        Left   Solvers     Best Integer        Best Node       Gap     Best Node(S)    Gap(S)\n'
b'*       0              2           1         8           3.3308           2.1709    53.43%\n'
b'*       1              2           1         8           2.9030           2.1709    33.72%\n'
b'*       3            139          72         8           2.9030           2.1709    33.72%\n'
b'        5           1216         209         8           2.9030           2.1709    33.72%\n'
b'       10           3385         198         8           2.9030           2.1709    33.72%\n'
b'Racing ramp-up finished after 12.49 seconds. Selected strategy 7.\n'
b'       15           6686         152         8           2.9030           2.1709     33.72%           2.1709     33.72%\n'
b'       16           6851           0         0           2.9030           2.9030      0.00%\n'
b'SCIP Status        : problem is solved\n'
b'Total Time         : 15.98\n'
b'  solving          : 15.98\n'
b'  presolving       : 0.04 (included in solving)\n'
b'B&B Tree           :\n'
b'  nodes (total)    : 6851\n'
b'Solution           :\n'
b'  Solutions found  : 3\n'
b'  Primal Bound     : +2.90295906702144e+00\n'
b'  Dual Bound       : +2.90295906702144e+00\n'
b'Gap                : 0.00000 %\n'
